(set-info :source |printed by MathSAT|)
(declare-fun .x.14 () Int)
(declare-fun .x.15 () Int)
(declare-fun @nd_int_0_0 () Int)
(declare-fun .x.16 () Int)
(declare-fun main@%_3_0_0 () Int)
(declare-fun main@%_3_1 () Int)
(declare-fun main@%_5_0_0 () Bool)
(declare-fun main@%_5_1 () Bool)
(declare-fun main@%_6_0_0 () Int)
(declare-fun main@%_6_1 () Int)
(declare-fun main@%_7_0_0 () Int)
(declare-fun main@%_7_1 () Int)
(declare-fun @nd_0_0 () Int)
(declare-fun .x.17 () Int)
(declare-fun main@%.0.i1_0_0 () Int)
(declare-fun main@%.0.i1_2 () Int)
(declare-fun main@%shadow.mem.0_0_0 () (Array Int Int))
(declare-fun main@%shadow.mem.0_2 () (Array Int Int))
(declare-fun main@%shadow.mem1.0_0_0 () (Array Int Int))
(declare-fun main@%shadow.mem1.0_2 () (Array Int Int))
(declare-fun main@%_18_0 () Int)
(declare-fun main@%_10_0_0 () Int)
(declare-fun main@%shadow.mem1.1_1 () (Array Int Int))
(declare-fun main@%shadow.mem.1_1 () (Array Int Int))
(define-fun .def_8 () Int (! .x.14 :next |.x.15|))
(define-fun .def_10 () Int (! @nd_int_0_0 :next |.x.16|))
(define-fun .def_12 () Int (! main@%_3_0_0 :next |main@%_3_1|))
(define-fun .def_14 () Bool (! main@%_5_0_0 :next |main@%_5_1|))
(define-fun .def_16 () Int (! main@%_6_0_0 :next |main@%_6_1|))
(define-fun .def_18 () Int (! main@%_7_0_0 :next |main@%_7_1|))
(define-fun .def_20 () Int (! @nd_0_0 :next |.x.17|))
(define-fun .def_22 () Int (! main@%.0.i1_0_0 :next |main@%.0.i1_2|))
(define-fun .def_24 () (Array Int Int) (! main@%shadow.mem.0_0_0 :next |main@%shadow.mem.0_2|))
(define-fun .def_26 () (Array Int Int) (! main@%shadow.mem1.0_0_0 :next |main@%shadow.mem1.0_2|))
(define-fun .def_123 () Bool (! (= .def_8 0) :init true))
(define-fun .def_163 () Bool (= .def_10 .x.16))
(define-fun .def_162 () Bool (= .def_20 .x.17))
(define-fun .def_164 () Bool (and .def_162 .def_163))
(define-fun .def_156 () Bool (= main@%.0.i1_2 0))
(define-fun .def_125 () Bool (<= main@%_3_1 0))
(define-fun .def_126 () Bool (not .def_125))
(define-fun .def_97 () Bool (= .x.15 1))
(define-fun .def_155 () Bool (and .def_97 .def_126))
(define-fun .def_157 () Bool (and .def_155 .def_156))
(define-fun .def_137 () Int (+ main@%_6_1 main@%_18_0))
(define-fun .def_147 () Bool (<= .def_137 0))
(define-fun .def_148 () Bool (not .def_147))
(define-fun .def_120 () Bool (<= main@%_6_1 0))
(define-fun .def_149 () Bool (or .def_120 .def_148))
(define-fun .def_134 () Int (+ main@%_7_1 main@%_18_0))
(define-fun .def_143 () Bool (<= .def_134 0))
(define-fun .def_144 () Bool (not .def_143))
(define-fun .def_118 () Bool (<= main@%_7_1 0))
(define-fun .def_145 () Bool (or .def_118 .def_144))
(define-fun .def_139 () Int (select main@%shadow.mem.1_1 .def_137))
(define-fun .def_136 () Int (select main@%shadow.mem1.1_1 .def_134))
(define-fun .def_140 () Bool (= .def_136 .def_139))
(define-fun .def_141 () Bool (not .def_140))
(define-fun .def_131 () Bool (<= main@%_3_1 main@%_18_0))
(define-fun .def_132 () Bool (not .def_131))
(define-fun .def_129 () Bool (and main@%_5_1 .def_125))
(define-fun .def_30 () Bool (<= main@%_18_0 (- 1)))
(define-fun .def_31 () Bool (not .def_30))
(define-fun .def_130 () Bool (and .def_31 .def_129))
(define-fun .def_133 () Bool (and .def_130 .def_132))
(define-fun .def_142 () Bool (and .def_133 .def_141))
(define-fun .def_146 () Bool (and .def_142 .def_145))
(define-fun .def_150 () Bool (and .def_146 .def_149))
(define-fun .def_34 () Bool (= .x.15 2))
(define-fun .def_151 () Bool (and .def_34 .def_150))
(define-fun .def_36 () Bool (= .def_22 main@%.0.i1_2))
(define-fun .def_152 () Bool (and .def_36 .def_151))
(define-fun .def_38 () Bool (= .def_24 main@%shadow.mem.0_2))
(define-fun .def_153 () Bool (and .def_38 .def_152))
(define-fun .def_40 () Bool (= .def_26 main@%shadow.mem1.0_2))
(define-fun .def_154 () Bool (and .def_40 .def_153))
(define-fun .def_158 () Bool (or .def_154 .def_157))
(define-fun .def_127 () Bool (= main@%_5_1 .def_126))
(define-fun .def_121 () Bool (not .def_120))
(define-fun .def_119 () Bool (not .def_118))
(define-fun .def_122 () Bool (and .def_119 .def_121))
(define-fun .def_124 () Bool (and .def_122 .def_123))
(define-fun .def_128 () Bool (and .def_124 .def_127))
(define-fun .def_159 () Bool (and .def_128 .def_158))
(define-fun .def_43 () Int (* (- 1) .def_22))
(define-fun .def_44 () Int (+ .def_12 .def_43))
(define-fun .def_45 () Bool (<= .def_44 1))
(define-fun .def_107 () Bool (not .def_45))
(define-fun .def_51 () Int (+ .def_18 .def_22))
(define-fun .def_104 () (Array Int Int) (store .def_26 .def_51 main@%_18_0))
(define-fun .def_105 () Bool (= main@%shadow.mem1.0_2 .def_104))
(define-fun .def_100 () Int (* (- 1) main@%.0.i1_2))
(define-fun .def_101 () Int (+ .def_22 .def_100))
(define-fun .def_102 () Bool (= .def_101 (- 1)))
(define-fun .def_59 () Int (+ .def_16 .def_22))
(define-fun .def_95 () (Array Int Int) (store .def_24 .def_59 main@%_18_0))
(define-fun .def_96 () Bool (= main@%shadow.mem.0_2 .def_95))
(define-fun .def_98 () Bool (and .def_96 .def_97))
(define-fun .def_103 () Bool (and .def_98 .def_102))
(define-fun .def_106 () Bool (and .def_103 .def_105))
(define-fun .def_108 () Bool (and .def_106 .def_107))
(define-fun .def_48 () Bool (<= .def_18 0))
(define-fun .def_49 () Bool (not .def_48))
(define-fun .def_109 () Bool (and .def_49 .def_108))
(define-fun .def_52 () Bool (<= .def_51 0))
(define-fun .def_53 () Bool (not .def_52))
(define-fun .def_54 () Bool (or .def_48 .def_53))
(define-fun .def_110 () Bool (and .def_54 .def_109))
(define-fun .def_56 () Bool (<= .def_16 0))
(define-fun .def_57 () Bool (not .def_56))
(define-fun .def_111 () Bool (and .def_57 .def_110))
(define-fun .def_60 () Bool (<= .def_59 0))
(define-fun .def_61 () Bool (not .def_60))
(define-fun .def_62 () Bool (or .def_56 .def_61))
(define-fun .def_112 () Bool (and .def_62 .def_111))
(define-fun .def_64 () Bool (= .def_8 1))
(define-fun .def_113 () Bool (and .def_64 .def_112))
(define-fun .def_66 () Bool (= .def_12 main@%_3_1))
(define-fun .def_114 () Bool (and .def_66 .def_113))
(define-fun .def_68 () Bool (= .def_14 main@%_5_1))
(define-fun .def_115 () Bool (and .def_68 .def_114))
(define-fun .def_70 () Bool (= .def_16 main@%_6_1))
(define-fun .def_116 () Bool (and .def_70 .def_115))
(define-fun .def_72 () Bool (= .def_18 main@%_7_1))
(define-fun .def_117 () Bool (and .def_72 .def_116))
(define-fun .def_160 () Bool (or .def_117 .def_159))
(define-fun .def_74 () Int (+ .def_16 main@%_18_0))
(define-fun .def_91 () Bool (<= .def_74 0))
(define-fun .def_92 () Bool (not .def_91))
(define-fun .def_93 () Bool (or .def_56 .def_92))
(define-fun .def_78 () Int (+ .def_18 main@%_18_0))
(define-fun .def_87 () Bool (<= .def_78 0))
(define-fun .def_88 () Bool (not .def_87))
(define-fun .def_89 () Bool (or .def_48 .def_88))
(define-fun .def_84 () Bool (<= .def_12 main@%_18_0))
(define-fun .def_85 () Bool (not .def_84))
(define-fun .def_79 () (Array Int Int) (store .def_26 .def_51 main@%_10_0_0))
(define-fun .def_80 () Int (select .def_79 .def_78))
(define-fun .def_76 () (Array Int Int) (store .def_24 .def_59 main@%_10_0_0))
(define-fun .def_77 () Int (select .def_76 .def_74))
(define-fun .def_81 () Bool (= .def_77 .def_80))
(define-fun .def_82 () Bool (not .def_81))
(define-fun .def_32 () Bool (and .def_14 .def_31))
(define-fun .def_35 () Bool (and .def_32 .def_34))
(define-fun .def_37 () Bool (and .def_35 .def_36))
(define-fun .def_39 () Bool (and .def_37 .def_38))
(define-fun .def_41 () Bool (and .def_39 .def_40))
(define-fun .def_46 () Bool (and .def_41 .def_45))
(define-fun .def_50 () Bool (and .def_46 .def_49))
(define-fun .def_55 () Bool (and .def_50 .def_54))
(define-fun .def_58 () Bool (and .def_55 .def_57))
(define-fun .def_63 () Bool (and .def_58 .def_62))
(define-fun .def_65 () Bool (and .def_63 .def_64))
(define-fun .def_67 () Bool (and .def_65 .def_66))
(define-fun .def_69 () Bool (and .def_67 .def_68))
(define-fun .def_71 () Bool (and .def_69 .def_70))
(define-fun .def_73 () Bool (and .def_71 .def_72))
(define-fun .def_83 () Bool (and .def_73 .def_82))
(define-fun .def_86 () Bool (and .def_83 .def_85))
(define-fun .def_90 () Bool (and .def_86 .def_89))
(define-fun .def_94 () Bool (and .def_90 .def_93))
(define-fun .def_161 () Bool (or .def_94 .def_160))
(define-fun .def_165 () Bool (! (and .def_161 .def_164) :trans true))
(define-fun .def_166 () Bool (= .def_8 2))
(define-fun .def_167 () Bool (! (not .def_166) :invar-property 0))
(assert true)
